\ Weighted set cover: 80 elements, 200 subsets
Minimize
  obj: 17 s0 + 19 s1 + 23 s2 + 20 s3 + 5 s4 + 13 s5 + 24 s6 + 9 s7 + 21 s8 + 12 s9 + 6 s10 + 21 s11 + 23 s12 + 6 s13 + 6 s14 + 14 s15 + 10 s16 + 5 s17 + 10 s18 + 5 s19 + 9 s20 + 22 s21 + 10 s22 + 6 s23 + 13 s24 + 6 s25 + 24 s26 + 11 s27 + 5 s28 + 6 s29 + 22 s30 + 20 s31 + 21 s32 + 19 s33 + 16 s34 + 9 s35 + 7 s36 + 23 s37 + 20 s38 + 15 s39 + 22 s40 + 13 s41 + 7 s42 + 10 s43 + 9 s44 + 14 s45 + 16 s46 + 8 s47 + 5 s48 + 14 s49 + 24 s50 + 5 s51 + 18 s52 + 7 s53 + 13 s54 + 5 s55 + 8 s56 + 5 s57 + 18 s58 + 14 s59 + 22 s60 + 15 s61 + 22 s62 + 8 s63 + 12 s64 + 16 s65 + 22 s66 + 24 s67 + 24 s68 + 16 s69 + 24 s70 + 19 s71 + 20 s72 + 22 s73 + 14 s74 + 7 s75 + 6 s76 + 18 s77 + 11 s78 + 18 s79 + 20 s80 + 22 s81 + 20 s82 + 9 s83 + 16 s84 + 14 s85 + 11 s86 + 6 s87 + 13 s88 + 13 s89 + 24 s90 + 23 s91 + 20 s92 + 15 s93 + 12 s94 + 8 s95 + 16 s96 + 16 s97 + 9 s98 + 8 s99 + 7 s100 + 17 s101 + 15 s102 + 10 s103 + 16 s104 + 23 s105 + 14 s106 + 7 s107 + 6 s108 + 17 s109 + 15 s110 + 19 s111 + 10 s112 + 22 s113 + 14 s114 + 16 s115 + 10 s116 + 9 s117 + 12 s118 + 12 s119 + 13 s120 + 21 s121 + 21 s122 + 8 s123 + 13 s124 + 24 s125 + 19 s126 + 15 s127 + 11 s128 + 11 s129 + 12 s130 + 16 s131 + 15 s132 + 22 s133 + 20 s134 + 16 s135 + 21 s136 + 7 s137 + 24 s138 + 11 s139 + 11 s140 + 24 s141 + 23 s142 + 18 s143 + 9 s144 + 12 s145 + 11 s146 + 22 s147 + 13 s148 + 16 s149 + 6 s150 + 20 s151 + 15 s152 + 7 s153 + 8 s154 + 20 s155 + 18 s156 + 17 s157 + 10 s158 + 23 s159 + 15 s160 + 11 s161 + 22 s162 + 6 s163 + 19 s164 + 9 s165 + 13 s166 + 8 s167 + 11 s168 + 14 s169 + 10 s170 + 7 s171 + 24 s172 + 7 s173 + 9 s174 + 14 s175 + 19 s176 + 6 s177 + 12 s178 + 13 s179 + 6 s180 + 19 s181 + 8 s182 + 11 s183 + 10 s184 + 13 s185 + 21 s186 + 21 s187 + 19 s188 + 8 s189 + 14 s190 + 10 s191 + 22 s192 + 15 s193 + 15 s194 + 11 s195 + 17 s196 + 22 s197 + 8 s198 + 24 s199
Subject To
  cover0: s24 + s35 + s54 + s97 + s130 + s144 + s151 + s154 + s168 >= 1
  cover1: s1 + s16 + s38 + s47 + s57 + s60 + s124 + s192 >= 1
  cover2: s34 + s40 + s44 + s47 + s56 + s95 + s112 + s182 >= 1
  cover3: s40 + s48 + s70 + s76 + s98 + s121 + s128 + s146 + s185 + s191 >= 1
  cover4: s10 + s13 + s42 + s65 + s98 + s107 + s124 + s146 + s150 + s180 + s182 + s183 >= 1
  cover5: s1 + s35 + s55 + s71 + s80 + s86 + s104 + s120 + s125 + s170 >= 1
  cover6: s14 + s41 + s45 + s54 + s72 + s92 + s122 + s128 + s133 + s150 + s186 >= 1
  cover7: s7 + s18 + s31 + s48 + s52 + s55 + s89 + s105 + s134 + s166 + s168 + s178 >= 1
  cover8: s17 + s29 + s45 + s48 + s50 + s51 + s59 + s76 + s88 + s116 + s122 + s125 + s143 + s144 + s151 + s157 >= 1
  cover9: s13 + s16 + s37 + s54 + s58 + s76 + s85 + s117 + s128 + s132 + s188 >= 1
  cover10: s21 + s53 + s78 + s90 + s94 + s118 + s121 + s130 + s133 + s135 + s137 + s160 + s174 + s179 + s191 >= 1
  cover11: s1 + s32 + s63 + s64 + s65 + s141 + s145 >= 1
  cover12: s20 + s52 + s118 + s138 + s140 + s143 + s151 + s159 + s167 + s173 + s174 + s183 + s184 + s186 >= 1
  cover13: s5 + s10 + s33 + s42 + s47 + s148 + s155 + s179 + s183 >= 1
  cover14: s20 + s21 + s41 + s66 + s92 + s120 + s121 + s147 + s149 + s185 >= 1
  cover15: s9 + s11 + s12 + s18 + s40 + s44 + s56 + s103 + s131 + s163 + s182 >= 1
  cover16: s7 + s68 + s71 + s80 + s83 + s111 + s128 + s129 + s149 + s172 + s178 >= 1
  cover17: s17 + s33 + s61 + s69 + s97 + s129 + s192 >= 1
  cover18: s17 + s33 + s68 + s176 + s181 >= 1
  cover19: s35 + s65 + s85 + s92 + s102 + s138 >= 1
  cover20: s4 + s43 + s46 + s81 + s99 + s100 + s137 + s156 >= 1
  cover21: s29 + s32 + s42 + s88 + s105 + s122 + s137 + s156 >= 1
  cover22: s4 + s47 + s89 + s106 + s178 >= 1
  cover23: s7 + s37 + s67 + s82 + s102 + s117 + s131 + s136 + s147 + s183 >= 1
  cover24: s79 + s154 + s185 >= 1
  cover25: s5 + s33 + s67 + s94 + s95 + s99 + s109 + s115 + s139 >= 1
  cover26: s8 + s38 + s59 + s87 + s92 + s143 + s152 + s164 >= 1
  cover27: s1 + s32 + s53 + s55 + s76 + s78 + s86 + s88 + s140 + s146 + s165 + s192 >= 1
  cover28: s20 + s32 + s44 + s52 + s54 + s112 + s126 + s162 >= 1
  cover29: s18 + s29 + s30 + s37 + s95 + s110 + s127 + s133 + s139 + s168 + s178 >= 1
  cover30: s21 + s51 + s62 + s79 + s80 + s109 + s115 + s119 + s132 + s142 + s169 + s170 + s187 + s197 + s199 >= 1
  cover31: s12 + s14 + s70 + s72 + s79 + s93 + s106 + s120 + s121 >= 1
  cover32: s10 + s20 + s31 + s46 + s60 + s62 + s66 + s101 + s111 + s113 + s114 + s122 + s174 + s177 + s199 >= 1
  cover33: s31 + s39 + s146 + s156 + s189 + s195 >= 1
  cover34: s39 + s71 + s113 + s137 + s164 + s166 + s175 + s190 >= 1
  cover35: s2 + s23 + s45 + s60 + s61 + s81 + s103 + s130 + s156 + s177 + s192 >= 1
  cover36: s11 + s38 + s46 + s50 + s95 + s137 + s144 + s153 + s176 >= 1
  cover37: s3 + s10 + s11 + s18 + s27 + s68 + s84 + s106 + s153 + s166 + s169 >= 1
  cover38: s0 + s14 + s31 + s42 + s57 + s72 + s94 + s163 + s167 + s169 + s180 >= 1
  cover39: s62 + s109 + s152 + s158 + s162 >= 1
  cover40: s58 + s63 + s81 + s83 + s94 + s120 + s153 + s178 >= 1
  cover41: s6 + s28 + s29 + s100 + s114 + s131 + s145 + s172 >= 1
  cover42: s15 + s18 + s28 + s37 + s53 + s57 + s117 + s121 + s141 + s165 + s181 >= 1
  cover43: s10 + s13 + s22 + s30 + s46 + s60 + s64 + s72 + s73 + s96 + s123 + s147 + s152 + s155 + s193 >= 1
  cover44: s6 + s32 + s41 + s62 + s64 + s76 + s106 + s113 + s114 + s197 >= 1
  cover45: s33 + s47 + s49 + s84 + s93 + s106 + s129 + s139 + s146 + s159 + s162 + s172 + s179 + s197 >= 1
  cover46: s27 + s34 + s73 + s116 + s120 + s122 + s127 + s150 + s161 + s190 + s197 + s198 + s199 >= 1
  cover47: s13 + s59 + s66 + s67 + s75 + s143 >= 1
  cover48: s11 + s19 + s25 + s40 + s52 + s59 + s77 + s109 + s116 + s145 + s151 + s176 + s186 + s198 >= 1
  cover49: s4 + s12 + s16 + s28 + s50 + s67 + s74 + s110 + s113 + s120 + s127 + s155 >= 1
  cover50: s19 + s22 + s27 + s65 + s91 + s97 + s115 + s142 + s155 >= 1
  cover51: s25 + s34 + s35 + s39 + s52 + s77 + s89 + s90 + s92 + s95 + s131 + s142 + s149 + s184 + s189 + s198 >= 1
  cover52: s48 + s65 + s73 + s80 + s94 + s109 + s110 + s124 + s132 + s148 + s166 + s171 >= 1
  cover53: s12 + s45 + s91 + s96 + s135 + s153 >= 1
  cover54: s0 + s21 + s24 + s74 + s116 + s152 + s159 + s169 >= 1
  cover55: s38 + s57 + s89 + s99 + s116 + s151 + s165 >= 1
  cover56: s1 + s3 + s19 + s51 + s83 + s96 + s101 + s125 + s136 + s157 + s186 + s191 + s199 >= 1
  cover57: s6 + s42 + s87 + s89 + s123 + s131 + s142 + s160 + s166 + s193 + s194 >= 1
  cover58: s18 + s39 + s50 + s66 + s73 + s85 + s86 + s93 + s96 + s103 + s110 + s133 + s151 + s185 >= 1
  cover59: s3 + s78 + s80 + s84 + s130 + s150 + s172 + s197 >= 1
  cover60: s30 + s52 + s93 + s113 + s133 + s134 + s160 + s164 + s190 + s194 >= 1
  cover61: s67 + s86 + s100 + s111 + s114 + s145 + s149 + s158 + s182 + s199 >= 1
  cover62: s3 + s6 + s62 + s68 + s71 + s75 + s78 + s87 + s107 + s125 + s156 + s175 >= 1
  cover63: s14 + s48 + s65 + s72 + s93 + s98 + s112 + s114 + s126 + s131 + s132 + s148 + s172 + s179 >= 1
  cover64: s2 + s3 + s6 + s20 + s35 + s48 + s68 + s71 + s129 + s168 + s195 >= 1
  cover65: s3 + s80 + s113 + s127 + s132 + s160 + s166 + s168 + s196 + s198 >= 1
  cover66: s25 + s43 + s76 + s84 + s85 + s108 + s116 + s176 + s179 >= 1
  cover67: s8 + s50 + s57 + s94 + s95 + s108 + s127 + s171 + s189 + s190 >= 1
  cover68: s17 + s27 + s30 + s36 + s61 + s66 + s85 + s139 + s144 + s175 + s187 >= 1
  cover69: s19 + s29 + s41 + s54 + s77 + s104 + s126 + s156 + s173 + s192 + s196 + s197 >= 1
  cover70: s5 + s13 + s39 + s78 + s89 + s176 + s184 >= 1
  cover71: s26 + s29 + s61 + s73 + s78 + s92 + s105 + s124 + s137 + s141 + s144 + s146 >= 1
  cover72: s40 + s72 + s82 + s106 + s149 + s160 + s188 >= 1
  cover73: s0 + s10 + s37 + s57 + s60 + s63 + s66 + s69 + s86 + s115 + s182 + s195 >= 1
  cover74: s16 + s36 + s49 + s86 + s87 + s154 + s191 >= 1
  cover75: s20 + s23 + s41 + s81 + s127 >= 1
  cover76: s5 + s15 + s34 + s35 + s36 + s42 + s51 + s87 + s153 + s186 + s194 >= 1
  cover77: s1 + s12 + s17 + s28 + s32 + s40 + s51 + s79 + s103 + s143 + s144 + s159 + s161 + s198 >= 1
  cover78: s9 + s14 + s23 + s132 + s136 + s170 >= 1
  cover79: s12 + s17 + s19 + s26 + s49 + s63 + s82 + s90 + s96 + s119 + s133 + s155 + s181 >= 1
Binary
  s0 s1 s2 s3 s4 s5 s6 s7 s8 s9
  s10 s11 s12 s13 s14 s15 s16 s17 s18 s19
  s20 s21 s22 s23 s24 s25 s26 s27 s28 s29
  s30 s31 s32 s33 s34 s35 s36 s37 s38 s39
  s40 s41 s42 s43 s44 s45 s46 s47 s48 s49
  s50 s51 s52 s53 s54 s55 s56 s57 s58 s59
  s60 s61 s62 s63 s64 s65 s66 s67 s68 s69
  s70 s71 s72 s73 s74 s75 s76 s77 s78 s79
  s80 s81 s82 s83 s84 s85 s86 s87 s88 s89
  s90 s91 s92 s93 s94 s95 s96 s97 s98 s99
  s100 s101 s102 s103 s104 s105 s106 s107 s108 s109
  s110 s111 s112 s113 s114 s115 s116 s117 s118 s119
  s120 s121 s122 s123 s124 s125 s126 s127 s128 s129
  s130 s131 s132 s133 s134 s135 s136 s137 s138 s139
  s140 s141 s142 s143 s144 s145 s146 s147 s148 s149
  s150 s151 s152 s153 s154 s155 s156 s157 s158 s159
  s160 s161 s162 s163 s164 s165 s166 s167 s168 s169
  s170 s171 s172 s173 s174 s175 s176 s177 s178 s179
  s180 s181 s182 s183 s184 s185 s186 s187 s188 s189
  s190 s191 s192 s193 s194 s195 s196 s197 s198 s199
End
